10J3M/DAT/10J3MNLL-5.dat
10 3
24.0009 24.0009
25.3072 25.3072
21.2596 21.2596
21.4772 21.4772
14.7984 14.7984
18.6899 18.6899
19.835 19.835
25.2449 25.2449
25.5923 25.5923
21.5658 21.5658
72.5904